	0	1	2	3	4	5	6	7
0	0	2147483647	2147483647	2147483647	2147483647	2147483647	2147483647	2147483647
1	2147483647	0	4	3	7	2	3	9
2	2147483647	4	0	4	8	3	4	10
3	2147483647	3	4	0	6	1	2	8
4	2147483647	7	8	6	0	5	6	12
5	2147483647	2	3	1	5	0	1	7
6	2147483647	3	4	2	6	1	0	6
7	2147483647	9	10	8	12	7	6	0
